WARNING: for repeatability, setting FPU to use double precision
============================[ Problem Statistics ]=============================
|                                                                             |
|  Number of variables:           100                                         |
|  Number of clauses:             449                                         |
|  Parse time:                   0.00 s                                       |
|  Eliminated clauses:           0.00 Mb                                      |
|  Simplification time:          0.00 s                                       |
|                                                                             |
============================[ Search Statistics ]==============================
| Conflicts |          ORIGINAL         |          LEARNT          | Progress |
|           |    Vars  Clauses Literals |    Limit  Clauses Lit/Cl |          |
===============================================================================
|       100 |      98      446     1348 |      163      100      7 |  0.010 % |
|       250 |      97      435     1314 |      179       92      7 |  1.010 % |
===============================================================================
restarts              : 3
conflicts             : 361            (91694 /sec)
decisions             : 425            (0.00 % random) (107950 /sec)
propagations          : 8447           (2145542 /sec)
conflict literals     : 2199           (23.75 % deleted)
Memory used           : 13.00 MB
CPU time              : 0.003937 s

SATISFIABLE
